NAME          
ROWS
 N  OBJ
 L  c1
COLUMNS
    MARKER    'MARKER'                 'INTORG'
    x[1]      c1        183
    x[1]      OBJ       -277
    x[2]      c1        913
    x[2]      OBJ       -838
    x[3]      c1        571
    x[3]      OBJ       -543
    x[4]      c1        74
    x[4]      OBJ       -15
    x[5]      c1        415
    x[5]      OBJ       -480
    x[6]      c1        413
    x[6]      OBJ       -472
    x[7]      c1        649
    x[7]      OBJ       -718
    x[8]      c1        678
    x[8]      OBJ       -714
    x[9]      c1        419
    x[9]      OBJ       -351
    x[10]     c1        701
    x[10]     OBJ       -626
    x[11]     c1        445
    x[11]     OBJ       -443
    x[12]     c1        71
    x[12]     OBJ       -79
    x[13]     c1        526
    x[13]     OBJ       -542
    x[14]     c1        952
    x[14]     OBJ       -943
    x[15]     c1        886
    x[15]     OBJ       -872
    x[16]     c1        867
    x[16]     OBJ       -936
    x[17]     c1        116
    x[17]     OBJ       -191
    x[18]     c1        375
    x[18]     OBJ       -276
    x[19]     c1        478
    x[19]     OBJ       -388
    x[20]     c1        800
    x[20]     OBJ       -823
    x[21]     c1        23
    x[21]     OBJ       -60
    x[22]     c1        939
    x[22]     OBJ       -993
    x[23]     c1        680
    x[23]     OBJ       -659
    x[24]     c1        409
    x[24]     OBJ       -457
    x[25]     c1        954
    x[25]     OBJ       -978
    x[26]     c1        850
    x[26]     OBJ       -781
    x[27]     c1        302
    x[27]     OBJ       -217
    x[28]     c1        220
    x[28]     OBJ       -219
    x[29]     c1        341
    x[29]     OBJ       -289
    x[30]     c1        941
    x[30]     OBJ       -862
    x[31]     c1        359
    x[31]     OBJ       -297
    x[32]     c1        -3
    x[32]     OBJ       -88
    x[33]     c1        46
    x[33]     OBJ       -35
    x[34]     c1        59
    x[34]     OBJ       -71
    x[35]     c1        803
    x[35]     OBJ       -746
    x[36]     c1        456
    x[36]     OBJ       -515
    x[37]     c1        633
    x[37]     OBJ       -544
    x[38]     c1        56
    x[38]     OBJ       -43
    x[39]     c1        375
    x[39]     OBJ       -416
    x[40]     c1        800
    x[40]     OBJ       -704
    x[41]     c1        677
    x[41]     OBJ       -688
    x[42]     c1        114
    x[42]     OBJ       -149
    x[43]     c1        726
    x[43]     OBJ       -799
    x[44]     c1        357
    x[44]     OBJ       -321
    x[45]     c1        354
    x[45]     OBJ       -403
    x[46]     c1        411
    x[46]     OBJ       -352
    x[47]     c1        261
    x[47]     OBJ       -261
    x[48]     c1        575
    x[48]     OBJ       -665
    x[49]     c1        -21
    x[49]     OBJ       -43
    x[50]     c1        675
    x[50]     OBJ       -772
    x[51]     c1        729
    x[51]     OBJ       -707
    x[52]     c1        70
    x[52]     OBJ       -51
    x[53]     c1        563
    x[53]     OBJ       -515
    x[54]     c1        700
    x[54]     OBJ       -641
    x[55]     c1        769
    x[55]     OBJ       -823
    x[56]     c1        498
    x[56]     OBJ       -586
    x[57]     c1        387
    x[57]     OBJ       -316
    x[58]     c1        464
    x[58]     OBJ       -485
    x[59]     c1        351
    x[59]     OBJ       -270
    x[60]     c1        838
    x[60]     OBJ       -925
    x[61]     c1        829
    x[61]     OBJ       -818
    x[62]     c1        688
    x[62]     OBJ       -631
    x[63]     c1        563
    x[63]     OBJ       -596
    x[64]     c1        -20
    x[64]     OBJ       -11
    x[65]     c1        73
    x[65]     OBJ       -137
    x[66]     c1        401
    x[66]     OBJ       -333
    x[67]     c1        520
    x[67]     OBJ       -527
    x[68]     c1        30
    x[68]     OBJ       -7
    x[69]     c1        994
    x[69]     OBJ       -996
    x[70]     c1        764
    x[70]     OBJ       -698
    x[71]     c1        801
    x[71]     OBJ       -787
    x[72]     c1        534
    x[72]     OBJ       -484
    x[73]     c1        624
    x[73]     OBJ       -669
    x[74]     c1        142
    x[74]     OBJ       -91
    x[75]     c1        415
    x[75]     OBJ       -501
    x[76]     c1        529
    x[76]     OBJ       -590
    x[77]     c1        522
    x[77]     OBJ       -424
    x[78]     c1        340
    x[78]     OBJ       -384
    x[79]     c1        742
    x[79]     OBJ       -714
    x[80]     c1        753
    x[80]     OBJ       -851
    x[81]     c1        752
    x[81]     OBJ       -732
    x[82]     c1        648
    x[82]     OBJ       -579
    x[83]     c1        572
    x[83]     OBJ       -538
    x[84]     c1        413
    x[84]     OBJ       -452
    x[85]     c1        744
    x[85]     OBJ       -816
    x[86]     c1        964
    x[86]     OBJ       -905
    x[87]     c1        532
    x[87]     OBJ       -573
    x[88]     c1        311
    x[88]     OBJ       -327
    x[89]     c1        434
    x[89]     OBJ       -412
    x[90]     c1        864
    x[90]     OBJ       -958
    x[91]     c1        1047
    x[91]     OBJ       -965
    x[92]     c1        427
    x[92]     OBJ       -526
    x[93]     c1        304
    x[93]     OBJ       -274
    x[94]     c1        931
    x[94]     OBJ       -900
    x[95]     c1        143
    x[95]     OBJ       -234
    x[96]     c1        435
    x[96]     OBJ       -377
    x[97]     c1        314
    x[97]     OBJ       -349
    x[98]     c1        622
    x[98]     OBJ       -717
    x[99]     c1        896
    x[99]     OBJ       -834
    x[100]    c1        231
    x[100]    OBJ       -144
RHS
    rhs       c1        25550
RANGES
BOUNDS
 LO bounds    x[1]      0
 PL bounds    x[1]
 LO bounds    x[2]      0
 PL bounds    x[2]
 LO bounds    x[3]      0
 PL bounds    x[3]
 LO bounds    x[4]      0
 PL bounds    x[4]
 LO bounds    x[5]      0
 PL bounds    x[5]
 LO bounds    x[6]      0
 PL bounds    x[6]
 LO bounds    x[7]      0
 PL bounds    x[7]
 LO bounds    x[8]      0
 PL bounds    x[8]
 LO bounds    x[9]      0
 PL bounds    x[9]
 LO bounds    x[10]     0
 PL bounds    x[10]
 LO bounds    x[11]     0
 PL bounds    x[11]
 LO bounds    x[12]     0
 PL bounds    x[12]
 LO bounds    x[13]     0
 PL bounds    x[13]
 LO bounds    x[14]     0
 PL bounds    x[14]
 LO bounds    x[15]     0
 PL bounds    x[15]
 LO bounds    x[16]     0
 PL bounds    x[16]
 LO bounds    x[17]     0
 PL bounds    x[17]
 LO bounds    x[18]     0
 PL bounds    x[18]
 LO bounds    x[19]     0
 PL bounds    x[19]
 LO bounds    x[20]     0
 PL bounds    x[20]
 LO bounds    x[21]     0
 PL bounds    x[21]
 LO bounds    x[22]     0
 PL bounds    x[22]
 LO bounds    x[23]     0
 PL bounds    x[23]
 LO bounds    x[24]     0
 PL bounds    x[24]
 LO bounds    x[25]     0
 PL bounds    x[25]
 LO bounds    x[26]     0
 PL bounds    x[26]
 LO bounds    x[27]     0
 PL bounds    x[27]
 LO bounds    x[28]     0
 PL bounds    x[28]
 LO bounds    x[29]     0
 PL bounds    x[29]
 LO bounds    x[30]     0
 PL bounds    x[30]
 LO bounds    x[31]     0
 PL bounds    x[31]
 LO bounds    x[32]     0
 PL bounds    x[32]
 LO bounds    x[33]     0
 PL bounds    x[33]
 LO bounds    x[34]     0
 PL bounds    x[34]
 LO bounds    x[35]     0
 PL bounds    x[35]
 LO bounds    x[36]     0
 PL bounds    x[36]
 LO bounds    x[37]     0
 PL bounds    x[37]
 LO bounds    x[38]     0
 PL bounds    x[38]
 LO bounds    x[39]     0
 PL bounds    x[39]
 LO bounds    x[40]     0
 PL bounds    x[40]
 LO bounds    x[41]     0
 PL bounds    x[41]
 LO bounds    x[42]     0
 PL bounds    x[42]
 LO bounds    x[43]     0
 PL bounds    x[43]
 LO bounds    x[44]     0
 PL bounds    x[44]
 LO bounds    x[45]     0
 PL bounds    x[45]
 LO bounds    x[46]     0
 PL bounds    x[46]
 LO bounds    x[47]     0
 PL bounds    x[47]
 LO bounds    x[48]     0
 PL bounds    x[48]
 LO bounds    x[49]     0
 PL bounds    x[49]
 LO bounds    x[50]     0
 PL bounds    x[50]
 LO bounds    x[51]     0
 PL bounds    x[51]
 LO bounds    x[52]     0
 PL bounds    x[52]
 LO bounds    x[53]     0
 PL bounds    x[53]
 LO bounds    x[54]     0
 PL bounds    x[54]
 LO bounds    x[55]     0
 PL bounds    x[55]
 LO bounds    x[56]     0
 PL bounds    x[56]
 LO bounds    x[57]     0
 PL bounds    x[57]
 LO bounds    x[58]     0
 PL bounds    x[58]
 LO bounds    x[59]     0
 PL bounds    x[59]
 LO bounds    x[60]     0
 PL bounds    x[60]
 LO bounds    x[61]     0
 PL bounds    x[61]
 LO bounds    x[62]     0
 PL bounds    x[62]
 LO bounds    x[63]     0
 PL bounds    x[63]
 LO bounds    x[64]     0
 PL bounds    x[64]
 LO bounds    x[65]     0
 PL bounds    x[65]
 LO bounds    x[66]     0
 PL bounds    x[66]
 LO bounds    x[67]     0
 PL bounds    x[67]
 LO bounds    x[68]     0
 PL bounds    x[68]
 LO bounds    x[69]     0
 PL bounds    x[69]
 LO bounds    x[70]     0
 PL bounds    x[70]
 LO bounds    x[71]     0
 PL bounds    x[71]
 LO bounds    x[72]     0
 PL bounds    x[72]
 LO bounds    x[73]     0
 PL bounds    x[73]
 LO bounds    x[74]     0
 PL bounds    x[74]
 LO bounds    x[75]     0
 PL bounds    x[75]
 LO bounds    x[76]     0
 PL bounds    x[76]
 LO bounds    x[77]     0
 PL bounds    x[77]
 LO bounds    x[78]     0
 PL bounds    x[78]
 LO bounds    x[79]     0
 PL bounds    x[79]
 LO bounds    x[80]     0
 PL bounds    x[80]
 LO bounds    x[81]     0
 PL bounds    x[81]
 LO bounds    x[82]     0
 PL bounds    x[82]
 LO bounds    x[83]     0
 PL bounds    x[83]
 LO bounds    x[84]     0
 PL bounds    x[84]
 LO bounds    x[85]     0
 PL bounds    x[85]
 LO bounds    x[86]     0
 PL bounds    x[86]
 LO bounds    x[87]     0
 PL bounds    x[87]
 LO bounds    x[88]     0
 PL bounds    x[88]
 LO bounds    x[89]     0
 PL bounds    x[89]
 LO bounds    x[90]     0
 PL bounds    x[90]
 LO bounds    x[91]     0
 PL bounds    x[91]
 LO bounds    x[92]     0
 PL bounds    x[92]
 LO bounds    x[93]     0
 PL bounds    x[93]
 LO bounds    x[94]     0
 PL bounds    x[94]
 LO bounds    x[95]     0
 PL bounds    x[95]
 LO bounds    x[96]     0
 PL bounds    x[96]
 LO bounds    x[97]     0
 PL bounds    x[97]
 LO bounds    x[98]     0
 PL bounds    x[98]
 LO bounds    x[99]     0
 PL bounds    x[99]
 LO bounds    x[100]    0
 PL bounds    x[100]
ENDATA
